Minimize
  - 81 y_0 - 91 y_1 - 46 y_2 - 94 y_3 - 73 y_4 - 37 y_6 - 63 y_7 - 68 y_8
   - 48 y_9 + 601 Constant
Subject To
 c_0: y_2 = 1
 c_1_0: y_0 >= 1
 c_1_1: y_1 + y_3 >= 1
 c_1_2: y_2 >= 1
 c_1_3: y_1 + y_3 >= 1
 c_1_4: y_4 >= 1
 c_1_5: y_5 >= 1
 c_1_6: y_6 >= 1
 c_1_7: y_7 >= 1
 c_1_8: y_8 >= 1
 c_1_9: y_9 >= 1
Bounds
 Constant = 1
Binaries
 y_0 y_1 y_2 y_3 y_4 y_5 y_6 y_7 y_8 y_9
End
